Problem:    
Rows:       256
Columns:    89 (72 integer, 72 binary)
Non-zeros:  960
Status:     INTEGER OPTIMAL
Objective:  value = 41.817079 (MINimum)

   No.   Row name        Activity     Lower bound   Upper bound
------ ------------    ------------- ------------- -------------
     1 r.5                   41.8171             0               
     2 r.6                   25.9607      -992.599               
     3 r.7                   1041.82             0               
     4 r.8                  -974.039       -992.52               
     5 r.9                   41.8171             0               
     6 r.10                  22.4353      -992.211               
     7 r.11                  1041.82             0               
     8 r.12                 -981.986      -992.682               
     9 r.13                  1041.82             0               
    10 r.14                 -978.006      -986.496               
    11 r.15                  41.8171             0               
    12 r.16                  21.9936      -988.148               
    13 r.17                  1041.82             0               
    14 r.18                  -991.51      -993.219               
    15 r.19                  41.8171             0               
    16 r.20                  8.48952      -993.028               
    17 r.21                  41.8171             0               
    18 r.22                  22.4353      -993.464               
    19 r.23                  1041.82             0               
    20 r.24                  -989.77      -993.717               
    21 r.25                  1041.82             0               
    22 r.26                 -999.617      -999.617               
    23 r.27                  41.8171             0               
    24 r.28                   3.1073      -994.818               
    25 r.29                  41.8171             0               
    26 r.30                  41.8171      -980.208               
    27 r.31                  1041.82             0               
    28 r.32                 -958.183      -984.144               
    29 r.33                  1041.82             0               
    30 r.34                 -958.183      -980.177               
    31 r.35                  41.8171             0               
    32 r.36                  41.8171      -983.695               
    33 r.37                        1             1             = 
    34 r.38                        1             1             = 
    35 r.39                        1             1             = 
    36 r.40                        1             1             = 
    37 r.41                        1             1             = 
    38 r.42                        1             1             = 
    39 r.43                        1             1             = 
    40 r.44                        1             1             = 
    41 r.45                     1000             2               
    42 r.46                    -1000         -1001               
    43 r.47                  1996.47      -992.211               
    44 r.48                        2             2               
    45 r.49                       -2         -1001               
    46 r.50                 -7.94642      -992.682               
    47 r.51                     1001             2               
    48 r.52                    -1001         -1001               
    49 r.53                  1996.03      -986.496               
    50 r.54                     1001             2               
    51 r.55                    -1001         -1001               
    52 r.56                  1996.03      -988.148               
    53 r.57                     1001             2               
    54 r.58                    -1001         -1001               
    55 r.59                  1982.53      -993.219               
    56 r.60                     1001             2               
    57 r.61                    -1001         -1001               
    58 r.62                  1982.53      -993.028               
    59 r.63                     1000             2               
    60 r.64                    -1000         -1001               
    61 r.65                  1996.47      -993.464               
    62 r.66                        2             2               
    63 r.67                       -2         -1001               
    64 r.68                 -15.7307      -993.717               
    65 r.69                  24.2523      -992.599               
    66 r.70                 -975.748       -992.52               
    67 r.71                  24.2523      -992.599               
    68 r.72                 -975.748       -992.52               
    69 r.73                  15.8564      -980.208               
    70 r.74                 -984.144      -984.144               
    71 r.75                  15.8564      -980.208               
    72 r.76                 -984.144      -984.144               
    73 r.77                     1001             2               
    74 r.78                    -1001         -1001               
    75 r.79                  2015.86      -980.177               
    76 r.80                     1001             2               
    77 r.81                    -1001         -1001               
    78 r.82                  2015.86      -983.695               
    79 r.83                     1000             2               
    80 r.84                    -1000         -1001               
    81 r.85                  2003.97         7.401               
    82 r.86                        2             2               
    83 r.87                       -2         -1001               
    84 r.88                   7.4801        7.4801               
    85 r.89                     1001             2               
    86 r.90                    -1001         -1001               
    87 r.91                     2000      -986.496               
    88 r.92                     1001             2               
    89 r.93                    -1001         -1001               
    90 r.94                  2003.51      -988.148               
    91 r.95                     1001             2               
    92 r.96                    -1001         -1001               
    93 r.97                   1986.5      -993.219               
    94 r.98                     1001             2               
    95 r.99                    -1001         -1001               
    96 r.100                 1990.01      -993.028               
    97 r.101                    1000             2               
    98 r.102                   -1000         -1001               
    99 r.103                 2000.44      -993.464               
   100 r.104                       2             2               
   101 r.105                      -2         -1001               
   102 r.106                -8.25065      -993.717               
   103 r.107                  20.727      -992.211               
   104 r.108                -983.694      -992.682               
   105 r.109                  20.727      -992.211               
   106 r.110                -983.694      -992.682               
   107 r.111                    1000             2               
   108 r.112                   -1000         -1001               
   109 r.113                 2019.82      -980.208               
   110 r.114                       2             2               
   111 r.115                      -2         -1001               
   112 r.116                -976.663      -984.144               
   113 r.117                -980.177      -980.177               
   114 r.118                 19.8235      -983.695               
   115 r.119                -976.663      -980.177               
   116 r.120                 23.3365      -983.695               
   117 r.121                    1001             2               
   118 r.122                   -1001         -1001               
   119 r.123                 2003.97         7.401               
   120 r.124                    1001             2               
   121 r.125                   -1001         -1001               
   122 r.126                 2003.97        7.4801               
   123 r.127                    1001             2               
   124 r.128                   -1001         -1001               
   125 r.129                 2000.44         7.789               
   126 r.130                    1001             2               
   127 r.131                   -1001         -1001               
   128 r.132                 1996.02       7.31799               
   129 r.133                -986.496      -986.496               
   130 r.134                 13.5041      -988.148               
   131 r.135                -986.496      -986.496               
   132 r.136                 13.5041      -988.148               
   133 r.137                    1001             2               
   134 r.138                   -1001         -1001               
   135 r.139                 2000.44      -993.464               
   136 r.140                    1001             2               
   137 r.141                   -1001         -1001               
   138 r.142                 1988.24      -993.717               
   139 r.143                -979.715      -986.496               
   140 r.144                 20.2853      -988.148               
   141 r.145                -979.715      -986.496               
   142 r.146                 20.2853      -988.148               
   143 r.147                    1001             2               
   144 r.148                   -1001         -1001               
   145 r.149                 2019.82      -980.208               
   146 r.150                    1001             2               
   147 r.151                   -1001         -1001               
   148 r.152                 2019.82      -984.144               
   149 r.153                -980.177      -980.177               
   150 r.154                 19.8235      -983.695               
   151 r.155                -980.177      -980.177               
   152 r.156                 19.8235      -983.695               
   153 r.157                    1001             2               
   154 r.158                   -1001         -1001               
   155 r.159                 2017.47         7.401               
   156 r.160                    1001             2               
   157 r.161                   -1001         -1001               
   158 r.162                 2017.47        7.4801               
   159 r.163                    1001             2               
   160 r.164                   -1001         -1001               
   161 r.165                 2013.95         7.789               
   162 r.166                    1001             2               
   163 r.167                   -1001         -1001               
   164 r.168                 2009.52       7.31799               
   165 r.169                    1001             2               
   166 r.170                   -1001         -1001               
   167 r.171                 2013.95      -993.464               
   168 r.172                    1001             2               
   169 r.173                   -1001         -1001               
   170 r.174                 2001.74      -993.717               
   171 r.175                -993.219      -993.219               
   172 r.176                  6.7812      -993.028               
   173 r.177                -993.219      -993.219               
   174 r.178                  6.7812      -993.028               
   175 r.179                    1001             2               
   176 r.180                   -1001         -1001               
   177 r.181                 2033.33      -980.208               
   178 r.182                    1001             2               
   179 r.183                   -1001         -1001               
   180 r.184                 2033.33      -984.144               
   181 r.185                -966.672      -980.177               
   182 r.186                 33.3276      -983.695               
   183 r.187                -966.672      -980.177               
   184 r.188                 33.3276      -983.695               
   185 r.189                    1000             2               
   186 r.190                   -1000         -1001               
   187 r.191                 2003.97         7.401               
   188 r.192                       2             2               
   189 r.193                      -2         -1001               
   190 r.194                 15.2644        7.4801               
   191 r.195                    1000             2               
   192 r.196                   -1000         -1001               
   193 r.197                 2000.44         7.789               
   194 r.198                       2             2               
   195 r.199                      -2         -1001               
   196 r.200                   7.318       7.31799               
   197 r.201                    1001             2               
   198 r.202                   -1001         -1001               
   199 r.203                    2000       13.5041               
   200 r.204                    1001             2               
   201 r.205                   -1001         -1001               
   202 r.206                  2011.3        11.852               
   203 r.207                    1001             2               
   204 r.208                   -1001         -1001               
   205 r.209                  1986.5        6.7812               
   206 r.210                    1001             2               
   207 r.211                   -1001         -1001               
   208 r.212                 1997.79       6.97209               
   209 r.213                  20.727      -993.464               
   210 r.214                -991.478      -993.717               
   211 r.215                  20.727      -993.464               
   212 r.216                -991.478      -993.717               
   213 r.217                 19.8235      -980.208               
   214 r.218                -980.177      -984.144               
   215 r.219                 31.1208      -980.208               
   216 r.220                -968.879      -984.144               
   217 r.221                -980.177      -980.177               
   218 r.222                 19.8235      -983.695               
   219 r.223                -968.879      -980.177               
   220 r.224                 31.1208      -983.695               
   221 r.225                    1000             2               
   222 r.226                   -1000         -1001               
   223 r.227                 1980.62         7.789               
   224 r.228                       2             2               
   225 r.229                      -2         -1001               
   226 r.230                 976.197       7.31799               
   227 r.231                    1001             2               
   228 r.232                   -1001         -1001               
   229 r.233                 1980.18       13.5041               
   230 r.234                    1001             2               
   231 r.235                   -1001         -1001               
   232 r.236                 1980.18        11.852               
   233 r.237                    1001             2               
   234 r.238                   -1001         -1001               
   235 r.239                 1966.67        6.7812               
   236 r.240                    1001             2               
   237 r.241                   -1001         -1001               
   238 r.242                 1966.67       6.97209               
   239 r.243                    1001             2               
   240 r.244                   -1001         -1001               
   241 r.245                    2000      -980.177               
   242 r.246                    1001             2               
   243 r.247                   -1001         -1001               
   244 r.248                    2000      -983.695               
   245 r.249                    1001             2               
   246 r.250                   -1001         -1001               
   247 r.251                 1984.14         7.401               
   248 r.252                    1001             2               
   249 r.253                   -1001         -1001               
   250 r.254                 1984.14        7.4801               
   251 r.255                    1001             2               
   252 r.256                   -1001         -1001               
   253 r.257                    2000       19.7919               
   254 r.258                    1001             2               
   255 r.259                   -1001         -1001               
   256 r.260                    2000       15.8564               

   No. Column name       Activity     Lower bound   Upper bound
------ ------------    ------------- ------------- -------------
     1 tt                    41.8171             0               
     2 s_1_1        *              0             0             1 
     3 t_1_1                 15.8564             0               
     4 s_1_7        *              0             0             1 
     5 s_2_1        *              1             0             1 
     6 t_2_1                 15.8564             0               
     7 s_2_7        *              1             0             1 
     8 s_1_2        *              0             0             1 
     9 t_1_2                 19.8235             0               
    10 s_1_8        *              1             0             1 
    11 s_2_2        *              1             0             1 
    12 t_2_2                 23.3365             0               
    13 s_2_8        *              0             0             1 
    14 s_1_3        *              1             0             1 
    15 t_1_3                 19.8235             0               
    16 s_2_3        *              0             0             1 
    17 t_2_3                 19.8235             0               
    18 s_1_4        *              1             0             1 
    19 t_1_4                 33.3276             0               
    20 s_2_4        *              0             0             1 
    21 t_2_4                 33.3276             0               
    22 s_1_5        *              0             0             1 
    23 t_1_5                 19.8235             0               
    24 s_2_5        *              1             0             1 
    25 t_2_5                 31.1208             0               
    26 s_1_6        *              1             0             1 
    27 t_1_6                 40.1088             0               
    28 s_2_6        *              0             0             1 
    29 t_2_6                 40.1088             0               
    30 t_1_7                       0             0               
    31 t_2_7                       0             0               
    32 t_1_8                       0             0               
    33 t_2_8                       0             0               
    34 r_1_1_2      *              1             0             1 
    35 u_1_1_2      *              0             0             1 
    36 r_2_1_2      *              0             0             1 
    37 u_2_1_2      *              0             0             1 
    38 r_1_1_3      *              1             0             1 
    39 u_1_1_3      *              0             0             1 
    40 r_2_1_3      *              1             0             1 
    41 u_2_1_3      *              0             0             1 
    42 r_1_1_4      *              1             0             1 
    43 u_1_1_4      *              0             0             1 
    44 r_2_1_4      *              1             0             1 
    45 u_2_1_4      *              0             0             1 
    46 r_1_1_5      *              1             0             1 
    47 u_1_1_5      *              0             0             1 
    48 r_2_1_5      *              0             0             1 
    49 u_2_1_5      *              0             0             1 
    50 r_1_1_8      *              1             0             1 
    51 u_1_1_8      *              0             0             1 
    52 r_2_1_8      *              1             0             1 
    53 u_2_1_8      *              0             0             1 
    54 r_1_2_3      *              1             0             1 
    55 u_1_2_3      *              0             0             1 
    56 r_2_2_3      *              1             0             1 
    57 u_2_2_3      *              0             0             1 
    58 r_1_2_4      *              1             0             1 
    59 u_1_2_4      *              0             0             1 
    60 r_2_2_4      *              1             0             1 
    61 u_2_2_4      *              0             0             1 
    62 r_1_2_5      *              1             0             1 
    63 u_1_2_5      *              0             0             1 
    64 r_2_2_5      *              0             0             1 
    65 u_2_2_5      *              0             0             1 
    66 r_1_2_7      *              1             0             1 
    67 u_1_2_7      *              0             0             1 
    68 r_2_2_7      *              0             0             1 
    69 u_2_2_7      *              1             0             1 
    70 r_1_3_5      *              1             0             1 
    71 u_1_3_5      *              0             0             1 
    72 r_2_3_5      *              1             0             1 
    73 u_2_3_5      *              0             0             1 
    74 r_1_3_7      *              1             0             1 
    75 u_1_3_7      *              0             0             1 
    76 r_2_3_7      *              1             0             1 
    77 u_2_3_7      *              0             0             1 
    78 r_1_4_5      *              1             0             1 
    79 u_1_4_5      *              0             0             1 
    80 r_2_4_5      *              1             0             1 
    81 u_2_4_5      *              0             0             1 
    82 r_1_4_7      *              1             0             1 
    83 u_1_4_7      *              0             0             1 
    84 r_2_4_7      *              1             0             1 
    85 u_2_4_7      *              0             0             1 
    86 r_1_7_8      *              1             0             1 
    87 u_1_7_8      *              0             0             1 
    88 r_2_7_8      *              1             0             1 
    89 u_2_7_8      *              0             0             1 

Integer feasibility conditions:

KKT.PE: max.abs.err = 2.27e-13 on row 55
        max.rel.err = 8.65e-17 on row 103
        High quality

KKT.PB: max.abs.err = 1.14e-13 on row 129
        max.rel.err = 1.15e-16 on row 129
        High quality

End of output
